 O Sc Gd 
 1.0000000000000000
     3.4419053931122821    0.0065259650917842    0.0656090087899514
     1.5792101427194007    2.9926171208740411    0.0047982302356405
     0.0625777917606155    0.1174798626369272    5.3724037559599402
 O   Sc  Gd 
   3   1   1
Direct
  0.3371320376505357  0.0455448002626574  0.9057119820179436
  0.6411705523798110  0.3779514195208911  0.2846490760421925
 -0.0119600528845972  0.7104439886833642  0.6037286065558384
  0.3360057657729019  0.0464054653021273  0.5347618063895159
  0.9877489151765400  0.7130607901413907  0.0546905157884310
