 O Sc Gd 
 1.0000000000000000
     4.0976550219880057    0.1919422578876319   -0.0511543227747307
    -0.0401043090251255    3.7932274091162377    0.0370390996703628
     0.0421886767934204   -0.0034652519609429    3.7573941108452220
 O   Sc  Gd 
   3   1   1
Direct
  0.0805028628918708  0.3400615871849734  0.9016617202509987
  0.6553789079831149  0.3916820316965834  0.4178374925630597
  0.6484653045498775  0.8749879795130530  0.9138135220443204
  0.5429315842606532  0.3797453707821132  0.9208788447785997
  0.9803578035562762  0.8896875099946699  0.4360709783908098
