 O Sc Gd 
 1.0000000000000000
     3.3962149098274939    0.0000000000000000    0.0000000000000000
     1.6734574825524204    3.0444518826852640    0.0000000000000000
     0.0842610151019059    0.1240370370461053    5.3552170205696239
 O   Sc  Gd 
   3   1   1
Direct
  0.3754044097373617  0.2415141374784709  0.4722898760211484
  0.0342292410149576  0.9348374331627169  0.0934491669667642
  0.7039569891147006  0.5875265643823552  0.7903787577203776
  0.0336267393526051  0.9351246218307990  0.7215057211766446
  0.7102784772552515  0.5860055301958970  0.2418136974860222
