 O Sc Gd 
 1.0000000000000000
     3.4626798226710536    0.0122230285707797   -0.0142401704567439
     1.7085582309116110    2.9508509597919828   -0.0555368243608830
     0.0314883108141974    0.0235754424758833    5.4490296561287304
 O   Sc  Gd 
   3   1   1
Direct
  0.2664380215435125  0.3684996458016679  0.4741233536638824
  0.9374026113468132  0.0279213930399025  0.0899112523373658
  0.6028579903835726  0.6964151432547218  0.7926245421713211
  0.9406821142139981  0.0226078270038692  0.7214936812521221
  0.5989325628165622  0.7030567720170185  0.2412843899462560
