 O Sc Gd 
 1.0000000000000000
     2.9644972103899905   -1.8365940489959216    0.0782602189340797
     2.8794898753400648    1.7117124491231830    0.0232615193102841
     0.0631792237136692   -0.0016755391165098    5.2746128304297262
 O   Sc  Gd 
   3   1   1
Direct
  0.6914948633436653  0.6657482435597215  0.5335005882746001
  0.0497712745122402  0.9873323456008060  0.8496704501750668
  0.3974510455294162  0.3223980313580054  0.1590213000581787
  0.4099060169782213  0.3130659107591393  0.7853940592512313
  0.0449838631026230  0.9940849585019366  0.3075648249532680
