 O Sc Gd 
 1.0000000000000000
     3.0849417986575345    0.0703080168556321   -0.8640727778866381
     1.5418406442712842    3.2517909794181832   -0.5783918551611705
    -1.5751942634696070   -0.1959448131539833    5.9181426985176069
 O   Sc  Gd 
   3   1   1
Direct
  0.6655413924006671  0.1486008776281162  0.3197909335316183
  0.6801349339969146  0.7755449834141590  0.6262728743882536
  0.6638865234586514  0.5279823442812315  0.0013017983650103
  0.3014478178649675  0.7628498956280049  0.2536025326639824
  0.1093336968212791  0.1644662256456825  0.7692246637454421
