 O Sc Gd 
 1.0000000000000000
     3.8393658263426733   -0.2914477432060432    0.0730413856211989
     0.0472976767751235    3.8289811837606145   -0.1308601435525864
     0.3790214733514699   -0.0229088006137515    3.9788403366224587
 O   Sc  Gd 
   3   1   1
Direct
  0.3227662322141602  0.5519117525853480  0.4389225817916850
  0.7700439734737913  0.4299850906472060  0.8342483790020123
  0.1427678057484251  0.9563661174694907  0.9982725638729534
  0.2711178531465601  0.4548443053583311  0.9568850269198380
  0.8419438569868163  0.8997886496828403  0.5224142257451219
