 O Sc Gd 
 1.0000000000000000
     3.3391106268371655    0.0653861481631088   -0.0259644987286491
     1.6480615938883751    3.0027169241770770   -0.1138553915967552
     0.0602230664702036    0.1539330998513598    5.5599670046276346
 O   Sc  Gd 
   3   1   1
Direct
  0.1491313722766802  0.8105730167154535  0.3701039794949111
  0.8004828743656067  0.4934445067056613  0.9830448065924068
  0.4755196460665144  0.1477769411914842  0.6681490823259872
  0.1514102493228090  0.8036857858541850  0.7310763826585268
  0.4719026733127669  0.1582070967023105  0.2073425328441192
