 O Sc Gd 
 1.0000000000000000
     3.1284946361936856    0.0200772240488845    0.0063509147174931
    -0.0192555637748924    2.9618981519703595    0.0840294422652262
    -0.0079384593223550    0.1615470063722672    5.8494564936707620
 O   Sc  Gd 
   3   1   1
Direct
  0.1903619340298520  0.6158266596586416  0.3776681961455081
  0.6904277356859979  0.1012972492894324  0.6556596448231061
  0.6904189882261511  0.6127430410551855  0.0447825754212805
  0.6904400818655885  0.1006225523300432  0.2998357355569379
  0.1904806553237257  0.5975288455084348  0.7730712240355947
