 O Sc Gd 
 1.0000000000000000
     3.4932690088722342    0.0344823267543719    0.0355092253356946
     1.7716394253490315    2.9709178211854503    0.0471620569907722
    -0.0157316512874433    0.0769720313621374    5.3618806465204587
 O   Sc  Gd 
   3   1   1
Direct
  0.1922534467075594  0.0624447576633430  0.3171780437823286
  0.5297120057085576  0.4133504154028048  0.9379360685872312
  0.8608096933019818  0.7384784183951956  0.6197948445638936
  0.1931882049351160  0.0612076842707642  0.6889485595295305
  0.8650276521470264  0.7353260586614253  0.1684130574585129
