 O Sc Gd 
 1.0000000000000000
     3.8537937829551643   -0.1940132443343151   -0.1485876652849108
    -0.1243166007049597    3.8401846811433380    0.1543040251474526
    -0.1412851613342709    0.1467623246976998    3.9385008204717447
 O   Sc  Gd 
   3   1   1
Direct
  0.0214884907929115  0.1360800250703477  0.3676316178637413
  0.1893083417738343  0.6943411143671110  0.9893184613868730
  0.5771642683785113  0.5177395240165211  0.5469748017079122
  0.0742268075955591  0.6426196896345961  0.4992532529346871
  0.5123330529792673  0.2068811261200501  0.0613471996634376
