 O Sc Gd 
 1.0000000000000000
     3.7842226414466702    0.0211351605877549    0.0338858704888625
    -0.0359758543225329    3.7191807386954312    0.1125248300571517
     0.0581559169144137   -0.1526724656924992    4.0713901539934012
 O   Sc  Gd 
   3   1   1
Direct
  0.9449760405010950  0.6176697205709093  0.0780928786086204
  0.4186905137817735  0.6159042004606043  0.6353009782385964
  0.9009764868906717  0.1233096187623360  0.6639597292478521
  0.9195667978583835  0.6258674906550435  0.5443805857706200
  0.4060527189958783  0.1410844903797062  0.9859022913760981
