 O Sc Gd 
 1.0000000000000000
     3.8883669482986112   -0.0226045597105060    0.0610893243663568
     0.3331768754335320    3.8509130474157827    0.1009906130245076
     0.3444120460247269    0.2568860589723608    3.9184590525007490
 O   Sc  Gd 
   3   1   1
Direct
  0.9267700946126930  0.4357857009908928  0.0706539581890835
  0.1138499544498276  0.8211345782403962  0.5060332200602883
  0.5518819192570084 -0.0036727738614117  0.8842533829651715
  0.0566092407508191  0.9416166000943287  0.0131133057456707
  0.6184996798422235  0.5033898531655222  0.5739846194201071
