 O Sc Gd 
 1.0000000000000000
     2.8695977671054012   -0.6580332513089169   -0.0541228289106401
     0.7496729425458941    3.0037733363210997   -0.0424224050533616
     0.1249383179048024    0.0646071049036981    5.9110072750193341
 O   Sc  Gd 
   3   1   1
Direct
  0.3868047909513024  0.2704745077879873  0.2831781321729990
  0.4081520169498817  0.7683970080384123  0.9498799841563722
  0.9119612691113245  0.2680438860268665  0.6752279043298126
  0.8966838184554060  0.2658839599611428  0.0289748766807477
  0.4119738171032922  0.7690969489102267  0.5553656773145909
