 O Sc Gd 
 1.0000000000000000
     2.9668561134337694    0.0000000000000000    0.0000000000000000
    -0.0087714916033180    3.1111343558630145    0.0000000000000000
    -0.1259451182678837   -0.2229789270519668    5.8618259923167875
 O   Sc  Gd 
   3   1   1
Direct
  0.8016349241799385  0.2216861913566126  0.1955035156630089
  0.3095980482969104  0.7152335818092642  0.4727422507264202
  0.2957270785209190  0.2154827569080062  0.8072328146028385
  0.7964813260692084  0.2212054878859841  0.5520000042195687
  0.2966790082488821  0.7408665866463975  0.0789579297474120
