 O Sc Gd 
 1.0000000000000000
     3.8222707474539024    0.0000000000000000    0.0000000000000000
     0.3809133353956680    3.8784024555696384    0.0000000000000000
     0.2888411793186815    0.1419192840062066    3.8869800350934214
 O   Sc  Gd 
   3   1   1
Direct
  0.8895532856532620  0.4773580289597371  0.0369226085220071
  0.0563516093219336  0.8621580722845894  0.4898608397837664
  0.5007440902731806  0.0377121661110236  0.8726309116384501
  0.0069240815248999  0.9767539258526271  0.9999890566163236
  0.5651613139910675  0.5208908856783270  0.5483566236278447
