 O Sc Gd 
 1.0000000000000000
     2.8887524554878121   -1.7728829854167965    0.0000000000000000
     2.8887524554878121    1.7728829854167965    0.0000000000000000
    -0.1357256628257582    0.0000000000000000    5.2968213720367867
 O   Sc  Gd 
   3   1   1
Direct
  0.4311343511677495  0.4311343511677495  0.7069897425891175
  0.0850507222159062  0.0850507222159063  0.0100589963906105
  0.7487104563222108  0.7487104563222113  0.3267412154907132
  0.4285421880159514  0.4285421880159515  0.0806308263024527
  0.0856375521543335  0.0856375521543336  0.5590861716086630
