 O Sc Gd 
 1.0000000000000000
     3.0402007216372109   -1.7773713657419674    0.0079228722095289
     3.1317290815451817    1.5718647254037978   -0.0471941564587890
    -0.1615698166916658    0.0103162516964602    5.3842044572504166
 O   Sc  Gd 
   3   1   1
Direct
  0.4846834381283050  0.8086717053348890  0.3311181866710924
  0.8346855647157900  0.1692452276444694  0.7090771134543291
  0.1567270213340420  0.4875828250549762  0.0283484366227988
  0.4797088921799846  0.8052231018679310  0.9607112072194284
  0.1663000106554661  0.4876754575661467  0.4793228742806354
