 O Sc Gd 
 1.0000000000000000
     3.4929482829746505    0.1018043538326784   -0.0735948977176268
     1.7980923873100363    2.9823853446200932   -0.0954943754265959
    -0.0029767275888497    0.0225177841940613    5.4499659019530222
 O   Sc  Gd 
   3   1   1
Direct
  0.4200619086961217  0.2581821025729235  0.4500374455797488
  0.0748615285511816  0.9081166344336626  0.0671439996714065
  0.7458629693070433  0.5816794373947407  0.7692260968133504
  0.0702223108262538  0.9025647804224926  0.6988160538240474
  0.7502351393537496  0.5883220169000518  0.2171596590603024
