 O Sc Gd 
 1.0000000000000000
     3.4593240608036178   -0.0639715108385601    0.0212857018518274
     1.6476643217192448    2.9524616518147853   -0.0246064381331004
     0.1414363636807610    0.1139894494105365    5.3684405615031618
 O   Sc  Gd 
   3   1   1
Direct
  0.6825100398204090  0.6802844753974422  0.4813053419139102
  0.0306578902000513  0.0100404567865913  0.8000674307055894
  0.3799396214584386  0.3440618724696281  0.1025129561319357
  0.3803783200266577  0.3429995139339411  0.7314112699127802
  0.0289969473860297  0.0152113307971021  0.2510324271851851
