 O Sc Gd 
 1.0000000000000000
    17.6238851433779331    0.0000000000000000    0.0000000000000000
     1.8784704754681385   -8.1984073082775062    0.0000000000000000
     0.0000000000000000    0.0000000000000000  -35.5324882339738508
 O   Sc  Gd 
  36  12  12
Direct
  0.4393902401806696  0.3414410840174566  0.5925321207312235
  0.8987701040681174  0.8776512955107273  0.6378978850672933
  0.3259834589678641  0.1900692770165105  0.6129795220801416
  0.8259834589678638  0.1900692770165105  0.1129795220801416
  0.3259834589678641  0.1900692770165105  0.3870204779198585
  0.0222174748985260  0.2201910458693197  0.9228186895352032
  0.5222174748985260  0.2201910458693197  0.5771813104647969
  0.2356028931546983  0.0701010162663656 -0.0000000000000000
  0.7356028931546983  0.0701010162663656  0.4999999999999999
  0.0996429334391308  0.4253364665669729 -0.0000000000000000
  0.2257454145939513  0.2903225806451613  0.0241096224860378
  0.7257454145939513  0.2903225806451613  0.5241096224860378
  0.2257454145939513  0.2903225806451613  0.9758903775139622
  0.7257454145939513  0.2903225806451613  0.4758903775139622
  0.8259834589678638  0.1900692770165105  0.8870204779198584
  0.5996429334391309  0.4253364665669729  0.4999999999999999
  0.6057771538438063  0.6760460219122898  0.0368205816827906
  0.1057771538438063  0.6760460219122898  0.5368205816827907
  0.5222174748985260  0.2201910458693197  0.4228186895352031
  0.1057771538438063  0.6760460219122898  0.4631794183172094
  0.6057771538438063  0.6760460219122898  0.9631794183172094
  0.3987701040681174  0.8776512955107273  0.1378978850672934
  0.8987701040681174  0.8776512955107273  0.3621021149327067
  0.3987701040681174  0.8776512955107273  0.8621021149327067
  0.9393902401806695  0.3414410840174566  0.0925321207312235
  0.0222174748985260  0.2201910458693197  0.0771813104647969
  0.4393902401806696  0.3414410840174566  0.4074678792687765
  0.9393902401806695  0.3414410840174566  0.9074678792687765
  0.2942442091128270  0.2676778466139714  0.8874019592883083
  0.7942442091128269  0.2676778466139714  0.6125980407116917
  0.2942442091128270  0.2676778466139714  0.1125980407116917
  0.9625232703634755  0.1794488357188635  0.0531022064882351
  0.4625232703634753  0.1794488357188635  0.5531022064882352
  0.9625232703634755  0.1794488357188635  0.9468977935117648
  0.4625232703634753  0.1794488357188635  0.4468977935117649
  0.7942442091128269  0.2676778466139714  0.3874019592883083
  0.3042085024567400  0.5765251625110630  0.7628101443525498
  0.3042085024567400  0.5765251625110630  0.2371898556474502
  0.8042085024567400  0.5765251625110630  0.2628101443525498
  0.0328379161961730  0.5337382122257149 -0.0000000000000000
  0.8042085024567400  0.5765251625110630  0.7371898556474502
  0.2998901333658863  0.0041810357982116  0.6945249794000061
  0.7998901333658864  0.0041810357982116  0.8054750205999939
  0.2998901333658863  0.0041810357982116  0.3054750205999939
  0.8517258217108675  0.7973876155888546  0.4999999999999999
  0.3517258217108676  0.7973876155888546 -0.0000000000000000
  0.5328379161961729  0.5337382122257149  0.4999999999999999
  0.7998901333658864  0.0041810357982116  0.1945249794000061
  0.7494125186925871  0.8853724784081544 -0.0000000000000000
  0.2494125186925871  0.8853724784081544  0.4999999999999999
  0.3183385723441267  0.3990905484176153  0.6168401135288553
  0.8183385723441268  0.3990905484176153  0.1168401135288552
  0.3183385723441267  0.3990905484176153  0.3831598864711447
  0.1992248298593097  0.3549302652058474  0.2691732535782952
  0.6992248298593097  0.3549302652058474  0.7691732535782952
  0.1992248298593097  0.3549302652058474  0.7308267464217048
  0.6992248298593097  0.3549302652058474  0.2308267464217048
  0.3688619647816400  0.4920499282815028  0.4999999999999999
  0.8183385723441268  0.3990905484176153  0.8831598864711447
  0.8688619647816400  0.4920499282815028 -0.0000000000000000
