 O Sc Gd 
 1.0000000000000000
   -36.1818721386175497    0.0000000000000000    0.0000000000000000
     0.0000000000000000  -11.7794300015847178    0.0000000000000000
     0.0000000000000000    2.8710306331706903   16.3386518124483260
 O   Sc  Gd 
  36  12  12
Direct
  0.2404553361613819  0.7341532639545885  0.1262550737022003
  0.4224982451857051  0.0457472457045198  0.3744315927610096
 -0.0000000000000000  0.8327585680715353  0.3784600360118411
 -0.0000000000000000  0.1672414319284647  0.6215399639881588
  0.1722464674825281 -0.0000000000000000  0.0000000000000000
  0.7867976928006836  0.2918179876094852  0.6888027588732565
  0.2132023071993164  0.2918179876094852  0.6888027588732565
  0.2768639179662465  0.4999999999999999  0.4999999999999999
  0.7231360820337535  0.4999999999999999  0.4999999999999999
  0.8832361827448347  0.4999999999999999  0.4999999999999999
  0.1607104709006012  0.4999999999999999  0.4999999999999999
  0.8392895290993988  0.4999999999999999  0.4999999999999999
  0.1132847071749016 -0.0000000000000000  0.0000000000000000
  0.8867152928250985 -0.0000000000000000  0.0000000000000000
  0.8277535325174719 -0.0000000000000000  0.0000000000000000
  0.1167638172551653  0.4999999999999999  0.4999999999999999
  0.3437604907376324  0.5507675405133214  0.6933805352946563
  0.3437604907376324  0.4492324594866787  0.3066194647053437
  0.7867976928006836  0.7081820123905150  0.3111972411267434
  0.6562395092623676  0.5507675405133214  0.6933805352946563
  0.6562395092623676  0.4492324594866787  0.3066194647053437
  0.4224982451857051  0.9542527542954802  0.6255684072389903
  0.5775017548142949  0.9542527542954802  0.6255684072389903
  0.5775017548142949  0.0457472457045198  0.3744315927610096
  0.2404553361613819  0.2658467360454116  0.8737449262977995
  0.2132023071993164  0.7081820123905150  0.3111972411267434
  0.7595446638386181  0.2658467360454116  0.8737449262977995
  0.7595446638386181  0.7341532639545885  0.1262550737022003
  0.5830256050294503  0.0366222113711966  0.5720694601275672
  0.4169743949705497  0.0366222113711966  0.5720694601275672
  0.4169743949705497  0.9633777886288033  0.4279305398724325
  0.6241035187841426  0.1573839533677175  0.2445448164311655
  0.6241035187841426  0.8426160466322826  0.7554551835688347
  0.3758964812158574  0.8426160466322826  0.7554551835688347
  0.3758964812158574  0.1573839533677175  0.2445448164311655
  0.5830256050294503  0.9633777886288033  0.4279305398724325
  0.3252357554857020  0.9415875728629414  0.8857387005218665
  0.6747642445142980  0.0584124271370586  0.1142612994781335
  0.3252357554857020  0.0584124271370586  0.1142612994781335
 -0.0000000000000000  0.4999999999999999  0.4999999999999999
  0.6747642445142980  0.9415875728629414  0.8857387005218665
  0.1906796472060305  0.6390575884273813  0.7684865871150851
  0.8093203527939696  0.6390575884273813  0.7684865871150851
  0.8093203527939696  0.3609424115726187  0.2315134128849147
  0.0617999816888943  0.4999999999999999  0.4999999999999999
  0.9382000183111057  0.4999999999999999  0.4999999999999999
  0.4999999999999999 -0.0000000000000000  0.0000000000000000
  0.1906796472060305  0.3609424115726187  0.2315134128849147
  0.3357951597643971  0.0000000000000001  0.4999999999999999
  0.6642048402356029  0.0000000000000001  0.4999999999999999
  0.8879360332041383  0.0000000000000001  0.4999999999999999
  0.1120639667958617  0.0000000000000001  0.4999999999999999
  0.7993408001953185  0.0000000000000001  0.4999999999999999
  0.4465773491622669  0.2822656941434981  0.8795739616077147
  0.4465773491622669  0.7177343058565020  0.1204260383922849
  0.5534226508377331  0.7177343058565020  0.1204260383922849
  0.5534226508377331  0.2822656941434981  0.8795739616077147
  0.4999999999999999  0.0000000000000001  0.4999999999999999
  0.2006591998046815  0.0000000000000001  0.4999999999999999
 -0.0000000000000000  0.4999999999999998 -0.0000000000000000
