 O Sc Gd 
 1.0000000000000000
    32.8647026415458186    0.0000000000000000    0.0000000000000000
   -16.4323513207729022   28.4616673754002250    0.0000000000000000
     0.0000000000000000    0.0000000000000000    5.5066213606861680
 O   Sc  Gd 
  36  12  12
Direct
  0.1748100222785118  0.0639362773522142  0.1013519699697867
  0.8891262550737021  0.0639362773522144  0.8986480300302135
  0.6076235236671040  0.0274361400189216  0.9712210455641347
  0.4198126163518173  0.3923764763328960  0.6378880455641347
  0.9725638599810785  0.5801873836481828  0.3045540455641346
  0.1322672200689719  0.8320871608630636  0.3640651390423292
  0.1679128391369366  0.8677327799310282  0.9692678609576709
  0.0708639790032655  0.9291360209967345  0.6666670000000000
  0.8582720419934688  0.9291360209967346  0.3333340000000001
  0.0708639790032655  0.1417279580065309  0.0000000000000000
  0.0876491592150639  0.0438245796075320  0.8333340000000000
  0.9561754203924681  0.9123508407849366  0.4999999999999999
  0.4198126163518174  0.0274361400189216  0.0287789544358654
  0.6076235236671040  0.5801873836481827  0.6954459544358653
  0.9725638599810785  0.3923764763328962  0.3621119544358654
  0.9561754203924679  0.0438245796075323  0.1666670000000000
  0.1679128391369366  0.3001800592059084  0.6973991390423292
  0.6998199407940917  0.8677327799310284  0.0307321390423292
  0.1322672200689718  0.3001800592059084  0.3026008609576708
  0.1922360911893063  0.4691000091555529  0.6353244907681509
  0.5308999908444471  0.7231360820337537  0.9686574907681509
  0.1748100222785118  0.1108737449262978  0.5653150300302134
  0.9360637226477858  0.8251899777214885  0.2319810300302132
  0.9360637226477859  0.1108737449262981  0.4346849699697867
  0.8891262550737021  0.8251899777214885  0.7680189699697867
  0.6998199407940917  0.8320871608630637  0.6359348609576708
  0.7974181340983305  0.2690206610309155  0.1455024136783960
  0.7309793389690847  0.5283974730674156  0.4788354136783960
  0.4716025269325845  0.2690206610309154  0.8544975863216040
  0.7309793389690847  0.2025818659016696  0.1878315863216041
  0.7974181340983306  0.5283974730674156  0.5211645863216041
  0.1922360911893063  0.7231360820337536  0.0313425092318491
  0.5308999908444469  0.8077639088106940  0.6980095092318491
  0.2768639179662465  0.4691000091555529  0.3646755092318492
  0.2768639179662465  0.8077639088106940  0.3019904907681509
  0.4716025269325846  0.2025818659016695  0.8121684136783961
  0.9656666768395031  0.5307168797875914  0.6057215365764337
  0.5650502029480879  0.5307168797875914  0.3942784634235664
  0.4692831202124088  0.4349497970519121  0.9390545365764337
  0.0058595538193915  0.9941404461806085  0.6666670000000000
  0.5650502029480879  0.0343333231604970  0.2723875365764336
  0.4692831202124088  0.0343333231604970  0.7276124634235664
  0.1669667653431806  0.5834833826715903  0.8333340000000000
  0.4165166173284098  0.8330332346568197  0.4999999999999999
  0.4165166173284097  0.5834833826715904  0.1666670000000000
  0.0058595538193915  0.0117191076387830  0.0000000000000000
  0.9882808923612169  0.9941404461806087  0.3333340000000001
  0.9656666768395032  0.4349497970519124  0.0609454634235664
  0.5848872341074861  0.1697744682149726  0.4999999999999999
  0.5200048829615160  0.4799951170384841  0.6666670000000000
  0.9599902340769676  0.4799951170384842  0.3333340000000001
  0.5200048829615160  0.0400097659230325  0.0000000000000000
  0.9065828424939726  0.6602679525131995  0.5033417767876217
  0.3397320474868007  0.2463148899807735  0.8366747767876218
  0.3397320474868006  0.0934171575060275  0.8299912232123783
  0.9065828424939726  0.2463148899807737  0.1633252232123783
  0.7536851100192267  0.6602679525131995  0.4966582232123783
  0.8302255317850277  0.4151127658925141  0.8333340000000000
  0.7536851100192267  0.0934171575060276  0.1700087767876217
  0.5848872341074862  0.4151127658925141  0.1666670000000000
