 O Sc Gd 
 1.0000000000000000
    15.7168553653609742    0.0000000000000000    0.0000000000000000
     0.0000000000000000   21.8166091926209731    0.0000000000000000
     0.0000000000000000    0.0000000000000000   20.2008597939956402
 O   Sc  Gd 
  36  12  12
Direct
  0.3408154545731987  0.0595873897518846  0.9824365977965637
  0.8408154545731988  0.5595873897518846  0.5175634022034363
  0.5000000000000000  0.0328531754509109  0.2500000000000000
  0.0000000000000000  0.4671468245490891  0.7500000000000000
  0.5000000000000000  0.9671468245490891  0.7500000000000000
  0.6910306100650044  0.1274452955717643  0.1526535843989379
  0.1910306100650045  0.3725547044282358  0.8473464156010619
  0.0000000000000000  0.4999999999999999  0.0000000000000000
  0.5000000000000000  0.0000000000000000  0.4999999999999999
  0.0000000000000000  0.4999999999999999  0.4999999999999999
  0.0000000000000000  0.1055940427869503  0.2500000000000000
  0.5000000000000000  0.3944059572130497  0.7500000000000000
  0.0000000000000000  0.8944059572130497  0.7500000000000000
  0.5000000000000000  0.6055940427869503  0.2500000000000000
  0.0000000000000000  0.5328531754509109  0.2500000000000000
  0.5000000000000000  0.0000000000000000  0.0000000000000000
  0.8089693899349958  0.6274452955717643  0.1526535843989379
  0.6910306100650044  0.8725547044282357  0.6526535843989379
  0.8089693899349958  0.3725547044282358  0.6526535843989379
  0.3089693899349957  0.8725547044282357  0.8473464156010619
  0.1910306100650045  0.6274452955717643  0.3473464156010619
  0.6591845454268014  0.9404126102481155  0.0175634022034363
  0.1591845454268014  0.5595873897518846  0.9824365977965637
  0.3408154545731987  0.9404126102481155  0.4824365977965636
  0.1591845454268014  0.4404126102481155  0.4824365977965636
  0.3089693899349957  0.1274452955717643  0.3473464156010619
  0.6591845454268014  0.0595873897518846  0.5175634022034363
  0.8408154545731988  0.4404126102481155  0.0175634022034363
  0.1604815820795313  0.9712363048188728  0.5406811731315042
  0.6604815820795312  0.5287636951811273  0.4593188268684957
  0.8395184179204688  0.9712363048188728  0.9593188268684958
  0.6604815820795312  0.4712363048188727  0.9593188268684958
  0.8395184179204688  0.0287636951811274  0.4593188268684957
  0.3395184179204688  0.4712363048188727  0.5406811731315042
  0.1604815820795313  0.0287636951811274  0.0406811731315043
  0.3395184179204688  0.5287636951811273  0.0406811731315043
  0.6840723899044771  0.7874385814996796  0.3489028595843378
  0.3159276100955229  0.7874385814996796  0.1510971404156621
  0.8159276100955232  0.7125614185003205  0.8489028595843379
  0.0000000000000000  0.1647999511703849  0.2500000000000000
  0.1840723899044772  0.7125614185003205  0.6510971404156621
  0.1840723899044772  0.2874385814996795  0.1510971404156621
  0.6840723899044771  0.2125614185003205  0.8489028595843379
  0.8159276100955232  0.2874385814996795  0.3489028595843378
  0.5000000000000000  0.6647999511703848  0.2500000000000000
  0.0000000000000000  0.8352000488296152  0.7500000000000000
  0.5000000000000000  0.3352000488296152  0.7500000000000000
  0.3159276100955229  0.2125614185003205  0.6510971404156621
  0.0000000000000000  0.9723197119052706  0.7500000000000000
  0.5000000000000000  0.5276802880947294  0.2500000000000000
  0.2571794793542285  0.6182744834742271  0.6871547593615528
  0.2428205206457717  0.8817255165257730  0.1871547593615528
  0.7428205206457719  0.6182744834742271  0.8128452406384472
  0.7428205206457719  0.3817255165257730  0.3128452406384472
  0.7571794793542284  0.1182744834742271  0.8128452406384472
  0.2571794793542285  0.3817255165257730  0.1871547593615528
  0.2428205206457717  0.1182744834742271  0.6871547593615528
  0.5000000000000000  0.4723197119052706  0.7500000000000000
  0.7571794793542284  0.8817255165257730  0.3128452406384472
  0.0000000000000000  0.0276802880947295  0.2500000000000000
