 O Sc Gd 
 1.0000000000000000
   -18.3692202318212239    0.0000000000000000    0.0000000000000000
     0.0000000000000000   20.4407377534946306    0.0000000000000000
     0.0000000000000000    0.0000000000000000  -20.4407377534946306
 O   Sc  Gd 
  36  12  12
Direct
  0.4999999999999999  0.4999999999999999  0.3381450849940489
 -0.0000000000000000  0.4999999999999999  0.1223792229987487
  0.4999999999999999  0.1314737388225959  0.8685262611774041
  0.4999999999999999  0.8685262611774041  0.1314737388225959
  0.4999999999999999  0.1314737388225959  0.1314737388225959
  0.4888760032959990  0.1920224616229743  0.3112277596362194
  0.4888760032959990  0.3112277596362194  0.8079775383770257
 -0.0000000000000000  0.0000000000000000 -0.0000000000000000
 -0.0000000000000000  0.4999999999999999  0.4999999999999999
  0.6318857387005219  0.0000000000000000 -0.0000000000000000
 -0.0000000000000000  0.4999999999999999  0.5721915341654713
 -0.0000000000000000  0.4999999999999999  0.4278084658345287
 -0.0000000000000000  0.5721915341654713  0.4999999999999999
 -0.0000000000000000  0.4278084658345287  0.4999999999999999
  0.4999999999999999  0.8685262611774041  0.8685262611774041
  0.3681142612994781  0.0000000000000000 -0.0000000000000000
  0.5111239967040010  0.3112277596362194  0.1920224616229743
  0.5111239967040010  0.6887722403637806  0.8079775383770257
  0.4888760032959990  0.8079775383770257  0.6887722403637806
  0.5111239967040010  0.1920224616229743  0.6887722403637806
  0.5111239967040010  0.8079775383770257  0.3112277596362194
 -0.0000000000000000  0.4999999999999999  0.8776207770012513
 -0.0000000000000000  0.1223792229987487  0.4999999999999999
 -0.0000000000000000  0.8776207770012513  0.4999999999999999
  0.4999999999999999  0.4999999999999999  0.6618549150059512
  0.4888760032959990  0.6887722403637806  0.1920224616229743
  0.4999999999999999  0.3381450849940489  0.4999999999999999
  0.4999999999999999  0.6618549150059512  0.4999999999999999
  0.9259010589922787  0.0192266609698782  0.3972899563585315
  0.9259010589922787  0.6027100436414685  0.0192266609698782
  0.9259010589922787  0.3972899563585315  0.9807733390301219
  0.0740989410077212  0.9807733390301219  0.3972899563585315
  0.0740989410077212  0.0192266609698782  0.6027100436414685
  0.0740989410077212  0.6027100436414685  0.9807733390301219
  0.0740989410077212  0.3972899563585315  0.0192266609698782
  0.9259010589922787  0.9807733390301219  0.6027100436414685
  0.4999999999999999  0.7195959349345378 -0.0000000000000000
  0.4999999999999999  0.0000000000000000  0.7195959349345378
  0.4999999999999999  0.2804040650654622 -0.0000000000000000
 -0.0000000000000000  0.0000000000000000  0.4999999999999999
  0.4999999999999999  0.0000000000000000  0.2804040650654622
 -0.0000000000000000  0.2225104525894955  0.7774895474105045
 -0.0000000000000000  0.7774895474105045  0.7774895474105045
 -0.0000000000000000  0.2225104525894955  0.2225104525894955
  0.4999999999999999  0.4999999999999999 -0.0000000000000000
  0.4999999999999999  0.0000000000000000  0.4999999999999999
 -0.0000000000000000  0.4999999999999999 -0.0000000000000000
 -0.0000000000000000  0.7774895474105045  0.2225104525894955
  0.2935575426496170  0.0000000000000000 -0.0000000000000000
  0.7064424573503830  0.0000000000000000 -0.0000000000000000
  0.7638172551652578  0.8763084810937833  0.2907803582873013
  0.7638172551652578  0.1236915189062167  0.7092196417126988
  0.7638172551652578  0.2907803582873013  0.1236915189062167
  0.2361827448347422  0.8763084810937833  0.7092196417126988
  0.2361827448347422  0.1236915189062167  0.2907803582873013
  0.2361827448347422  0.2907803582873013  0.8763084810937833
  0.2361827448347422  0.7092196417126988  0.1236915189062167
  0.4999999999999999  0.4999999999999999  0.4999999999999999
  0.7638172551652578  0.7092196417126988  0.8763084810937833
  0.4999999999999999  0.0000000000000000 -0.0000000000000000
