 O Sc Gd 
 1.0000000000000000
   -16.0424040246810335    0.0000000000000000    0.0000000000000000
     0.0000000000000000  -16.0424040246810335    0.0000000000000000
     0.0000000000000000    0.0000000000000000   16.0424040246810335
 O   Sc  Gd 
  36  12  12
Direct
  0.5857875301370283  0.7500000000000000  0.7500000000000000
  0.2500000000000000  0.2500000000000000  0.0857875301370281
  0.4142124698629719  0.2500000000000000  0.2500000000000000
  0.0857875301370281  0.2500000000000000  0.2500000000000000
  0.2500000000000000  0.4142124698629719  0.2500000000000000
  0.3395184179204688  0.3395184179204688  0.1604815820795311
  0.3395184179204688  0.1604815820795311  0.3395184179204688
  0.2500000000000000  0.2500000000000000  0.2500000000000000
  0.7500000000000000  0.7500000000000000  0.7500000000000000
  0.2500000000000000  0.7500000000000000  0.2500000000000000
  0.2500000000000000  0.2500000000000000  0.7500000000000000
  0.7500000000000000  0.2500000000000000  0.7500000000000000
  0.2500000000000000  0.7500000000000000  0.7500000000000000
  0.7500000000000000  0.7500000000000000  0.2500000000000000
  0.2500000000000000  0.0857875301370281  0.2500000000000000
  0.7500000000000000  0.2500000000000000  0.2500000000000000
  0.1604815820795311  0.3395184179204688  0.1604815820795311
  0.3395184179204688  0.1604815820795311  0.1604815820795311
  0.1604815820795311  0.1604815820795311  0.1604815820795311
  0.3395184179204688  0.3395184179204688  0.3395184179204688
  0.1604815820795311  0.1604815820795311  0.3395184179204688
  0.2500000000000000  0.2500000000000000  0.4142124698629719
  0.7500000000000000  0.9142124698629719  0.7500000000000000
  0.7500000000000000  0.5857875301370283  0.7500000000000000
  0.9142124698629719  0.7500000000000000  0.7500000000000000
  0.1604815820795311  0.3395184179204688  0.3395184179204688
  0.7500000000000000  0.7500000000000000  0.5857875301370283
  0.7500000000000000  0.7500000000000000  0.9142124698629719
  0.8395184179204688  0.8395184179204688  0.6604815820795312
  0.6604815820795312  0.8395184179204688  0.8395184179204688
  0.8395184179204688  0.6604815820795312  0.8395184179204688
  0.6604815820795312  0.6604815820795312  0.8395184179204688
  0.8395184179204688  0.8395184179204688  0.8395184179204688
  0.8395184179204688  0.6604815820795312  0.6604815820795312
  0.6604815820795312  0.8395184179204688  0.6604815820795312
  0.6604815820795312  0.6604815820795312  0.6604815820795312
  0.7500000000000000  0.7500000000000000  0.0169988097781304
  0.0169988097781304  0.7500000000000000  0.7500000000000000
  0.7500000000000000  0.7500000000000000  0.4830011902218697
  0.2500000000000000  0.9830011902218696  0.2500000000000000
  0.4830011902218697  0.7500000000000000  0.7500000000000000
  0.7500000000000000  0.4830011902218697  0.7500000000000000
  0.2500000000000000  0.2500000000000000  0.9830011902218696
  0.2500000000000000  0.2500000000000000  0.5169988097781304
  0.5169988097781304  0.2500000000000000  0.2500000000000000
  0.9830011902218696  0.2500000000000000  0.2500000000000000
  0.2500000000000000  0.5169988097781304  0.2500000000000000
  0.7500000000000000  0.0169988097781304  0.7500000000000000
 -0.0000000000000000  0.2500000000000000  0.7500000000000000
  0.4999999999999999  0.2500000000000000  0.7500000000000000
  0.2500000000000000  0.7500000000000000  0.0000000000000000
  0.2500000000000000  0.7500000000000000  0.4999999999999999
 -0.0000000000000000  0.7500000000000000  0.2500000000000000
  0.2500000000000000 -0.0000000000000000  0.7500000000000000
  0.2500000000000000  0.4999999999999999  0.7500000000000000
  0.7500000000000000  0.2500000000000000  0.4999999999999999
  0.7500000000000000  0.2500000000000000  0.0000000000000000
  0.7500000000000000  0.4999999999999999  0.2500000000000000
  0.4999999999999999  0.7500000000000000  0.2500000000000000
  0.7500000000000000 -0.0000000000000000  0.2500000000000000
