 O Sc Gd 
 1.0000000000000000
    10.0694428331562147    0.0000000000000000    0.0000000000000000
     0.0000000000000000  -40.7224192291341183    0.0000000000000000
    -5.0347214165781047    0.0000000000000000   -8.7203932954684316
 O   Sc  Gd 
  36  12  12
Direct
  0.7776726584673603  0.0465712454603717  0.6664021729178751
  0.8887295144505142  0.9534287545396283  0.6664021729178751
  0.4343699453718680 -0.0000000000000000  0.8687398907437363
  0.1312601092562640 -0.0000000000000000  0.5656300546281321
  0.4343699453718680 -0.0000000000000000  0.5656300546281322
  0.7664113284707174  0.3038117618335521  0.6178777428510395
  0.3821222571489608  0.6961882381664480  0.2335886715292826
  0.6666669999999998 -0.0000000000000000  0.3333330000000003
  0.0000000000000000  0.4999999999999999 -0.0000000000000000
  0.3333330000000000  0.1283913693655202  0.6666670000000002
  0.0000000000000000  0.5848567155980102 -0.0000000000000000
  0.0000000000000000  0.4151432844019898 -0.0000000000000000
  0.1010773033845027 -0.0000000000000000  0.8989226966154974
  0.7978453932309945 -0.0000000000000000  0.8989226966154976
  0.1010773033845027 -0.0000000000000000  0.2021546067690055
  0.3333330000000000  0.8716086306344798  0.6666670000000002
  0.3821222571489607  0.3038117618335521  0.1485335856196784
  0.8514664143803214  0.3038117618335521  0.2335886715292828
  0.7664113284707175  0.6961882381664480  0.1485335856196786
  0.1265297402874844  0.3550523392437513  0.9727774895474107
  0.0272225104525895  0.3550523392437513  0.1537522507400738
  0.7776726584673603  0.9534287545396283  0.1112704855494859
  0.3335978270821252  0.9534287545396283  0.2223273415326397
  0.3335978270821252  0.0465712454603717  0.1112704855494858
  0.8887295144505142  0.0465712454603717  0.2223273415326399
  0.8514664143803214  0.6961882381664480  0.6178777428510395
  0.2384716330454420  0.3790704062013611  0.2188482314523759
  0.7811517685476240  0.3790704062013611  0.0196234015930665
  0.9803765984069334  0.6209295937986389  0.2188482314523762
  0.7811517685476240  0.6209295937986389  0.7615283669545583
  0.2384716330454420  0.6209295937986389  0.0196234015930663
  0.1265297402874844  0.6449476607562487  0.1537522507400739
  0.0272225104525895  0.6449476607562487  0.8734702597125159
  0.8462477492599261  0.6449476607562487  0.9727774895474107
  0.8462477492599260  0.3550523392437513  0.8734702597125159
  0.9803765984069334  0.3790704062013611  0.7615283669545583
  0.5465254676961575  0.0308847315897092  0.9019745475630971
  0.3554490798669391  0.9691152684102911  0.9019745475630971
  0.0980254524369029  0.0308847315897092  0.6445509201330607
  0.7463301492355112 -0.0000000000000000  0.2536698507644889
  0.3554490798669393  0.0308847315897092  0.4534745323038424
  0.0980254524369029  0.9691152684102911  0.4534745323038423
  0.5986816003906369 -0.0000000000000000  0.7993408001953188
  0.2006591998046815 -0.0000000000000000  0.4013183996093631
  0.2006591998046814 -0.0000000000000000  0.7993408001953186
  0.7463301492355112 -0.0000000000000000  0.4926602984710229
  0.5073397015289773 -0.0000000000000000  0.2536698507644889
  0.5465254676961575  0.9691152684102911  0.6445509201330609
  0.0000000000000000 -0.0000000000000000 -0.0000000000000000
  0.4466689046906947  0.4999999999999999  0.5533310953093051
  0.1066621906186103  0.4999999999999999  0.5533310953093051
  0.4466689046906947  0.4999999999999999  0.8933378093813900
  0.9351481673635058  0.8619647816400647  0.4218573564867095
  0.5781426435132906  0.8619647816400647  0.5132908108767970
  0.5781426435132906  0.1380352183599353  0.0648518326364943
  0.9351481673635058  0.1380352183599353  0.5132908108767971
  0.4867091891232032  0.1380352183599353  0.4218573564867093
  0.3333330000000000  0.4999999999999999  0.6666670000000002
  0.4867091891232032  0.8619647816400647  0.0648518326364942
  0.3333330000000000 -0.0000000000000000  0.6666670000000002
