 O Sc Gd 
 1.0000000000000000
   -39.6446818253850921    0.0000000000000000    0.0000000000000000
     0.0000000000000000  -11.2242838667442015    0.0000000000000000
     0.0000000000000000    5.6121419333720981    9.7205149678883096
 O   Sc  Gd 
  36  12  12
Direct
 -0.0000000000000000  0.8474379711294898  0.6948759422589800
 -0.0000000000000000  0.1525620288705099  0.8474379711294902
  0.4999999999999999  0.1501815851313822  0.3003631702627643
  0.4999999999999999  0.6996368297372355  0.8498184148686178
  0.4999999999999999  0.1501815851313821  0.8498184148686178
  0.9217810602130192  0.6916409802545241  0.0245979186376537
  0.9217810602130192  0.3083590197454755  0.9754020813623462
  0.3162327951902829 -0.0000000000000000  0.0000000000000000
  0.6837672048097171 -0.0000000000000000  0.0000000000000000
  0.0538346507156591  0.6666669999999998  0.3333329999999999
  0.9461653492843408  0.3333329999999999  0.6666670000000000
  0.9461653492843408  0.6666669999999998  0.3333329999999999
  0.4999999999999999  0.8498184148686176  0.1501815851313822
  0.4999999999999999  0.3003631702627642  0.1501815851313821
  0.4999999999999999  0.8498184148686176  0.6996368297372357
  0.0538346507156591  0.3333329999999999  0.6666670000000000
  0.9217810602130192  0.3329569383831292  0.3083590197454756
  0.9217810602130192  0.9754020813623461  0.6670430616168705
  0.9217810602130192  0.0245979186376537  0.3329569383831294
  0.0782189397869808  0.6916409802545241  0.6670430616168704
  0.0782189397869808  0.9754020813623461  0.3083590197454756
 -0.0000000000000000  0.6948759422589798  0.8474379711294899
 -0.0000000000000000  0.1525620288705099  0.3051240577410199
 -0.0000000000000000  0.8474379711294898  0.1525620288705099
 -0.0000000000000000  0.3051240577410199  0.1525620288705099
  0.9217810602130192  0.6670430616168704  0.6916409802545243
  0.4999999999999999  0.1178930021057771  0.5589465010528886
  0.4999999999999999  0.4410534989471113  0.5589465010528886
  0.4999999999999999  0.5589465010528883  0.4410534989471113
  0.4999999999999999  0.8821069978942226  0.4410534989471114
  0.4999999999999999  0.5589465010528883  0.1178930021057771
  0.0782189397869808  0.6670430616168704  0.9754020813623462
  0.0782189397869808  0.3083590197454755  0.3329569383831293
  0.0782189397869808  0.0245979186376536  0.6916409802545243
  0.0782189397869808  0.3329569383831292  0.0245979186376537
  0.4999999999999999  0.4410534989471113  0.8821069978942228
  0.6496169927060762  0.3333329999999999  0.6666670000000000
  0.3503830072939237  0.6666669999999998  0.3333329999999999
  0.6496169927060762  0.6666669999999998  0.3333329999999999
 -0.0000000000000000  0.6666669999999998  0.3333329999999999
  0.3503830072939237  0.3333329999999999  0.6666670000000000
  0.6038392284920804  0.6666669999999998  0.3333329999999999
  0.3961607715079195  0.6666669999999998  0.3333329999999999
  0.3961607715079195  0.3333329999999999  0.6666670000000000
  0.1819513534958953 -0.0000000000000000  0.0000000000000000
  0.8180486465041046 -0.0000000000000000  0.0000000000000000
 -0.0000000000000000  0.3333329999999999  0.6666670000000000
  0.6038392284920804  0.3333329999999999  0.6666670000000000
  0.7036347544785913  0.3333329999999999  0.6666670000000000
  0.7036347544785913  0.6666669999999998  0.3333329999999999
  0.4488357188634907  0.6666669999999998  0.3333329999999999
  0.4488357188634907  0.3333329999999999  0.6666670000000000
  0.5511642811365093  0.3333329999999999  0.6666670000000000
  0.1171300393688772  0.6666669999999998  0.3333329999999999
  0.1171300393688772  0.3333329999999999  0.6666670000000000
  0.8828699606311228  0.3333329999999999  0.6666670000000000
  0.8828699606311228  0.6666669999999998  0.3333329999999999
  0.2963652455214087  0.3333329999999999  0.6666670000000000
  0.5511642811365093  0.6666669999999998  0.3333329999999999
  0.2963652455214087  0.6666669999999998  0.3333329999999999
