 O Sc Gd 
 1.0000000000000000
    30.4316547666275028    0.0000000000000000    0.0000000000000000
    -9.4901961184152093  -13.2580064840247100    0.0000000000000000
     0.0000000000000000    0.0000000000000000  -10.0780099031383212
 O   Sc  Gd 
  36  12  12
Direct
  0.5088961455122532  0.3577227088229010  0.7474135563219092
  0.1809747611926633  0.0748924222540971  0.1727042451246681
  0.1178777428510392  0.0448164311655019  0.2189855647450178
  0.1178777428510391  0.5448164311655016  0.7189855647450178
  0.6178777428510391  0.0448164311655021  0.7810144352549822
  0.5184179204687643  0.3455000457777642  0.6421094393749808
  0.0184179204687642  0.8455000457777639  0.8578905606250188
  0.2239143040253914  0.5238807336649677  0.9876705221716972
  0.2239143040253914  0.0238807336649678  0.4876705221716970
  0.7239143040253914  0.5238807336649677  0.0123294778283027
  0.6191290017395550  0.2010864589373456  0.7898495437482833
  0.6191290017395551  0.7010864589373456  0.2898495437482831
  0.1191290017395550  0.2010864589373454  0.2101504562517166
  0.1191290017395549  0.7010864589373452  0.7101504562517164
  0.6178777428510391  0.5448164311655018  0.2810144352549820
  0.7239143040253916  0.0238807336649678  0.5123294778283027
  0.6580553605761894  0.8668324839014860  0.9220709860530409
  0.6580553605761895  0.3668324839014862  0.4220709860530411
  0.5184179204687643  0.8455000457777639  0.1421094393749807
  0.1580553605761895  0.3668324839014862  0.5779290139469586
  0.1580553605761894  0.8668324839014859  0.0779290139469586
  0.1809747611926633  0.5748924222540969  0.6727042451246679
  0.6809747611926634  0.0748924222540972  0.8272957548753319
  0.6809747611926634  0.5748924222540969  0.3272957548753317
  0.5088961455122534  0.8577227088229010  0.2474135563219089
  0.0184179204687642  0.3455000457777642  0.3578905606250189
  0.0088961455122532  0.3577227088229010  0.2525864436780907
  0.0088961455122530  0.8577227088229007  0.7525864436780905
  0.5854060487685783  0.3441724906155584  0.8260292367320781
  0.0854060487685781  0.8441724906155580  0.6739707632679218
  0.0854060487685782  0.3441724906155583  0.1739707632679219
  0.6217841120639669  0.3267921994689779  0.8904080324716940
  0.6217841120639669  0.8267921994689776  0.3904080324716938
  0.1217841120639669  0.3267921994689778  0.1095919675283058
  0.1217841120639668  0.8267921994689776  0.6095919675283057
  0.5854060487685783  0.8441724906155581  0.3260292367320778
  0.3654438917203285  0.8053529465620897  0.2303537095248266
  0.8654438917203285  0.8053529465620897  0.7696462904751730
  0.3654438917203285  0.3053529465620898  0.7303537095248267
  0.9919125949888610  0.3779717398602252  0.6746421704763939
  0.8654438917203285  0.3053529465620900  0.2696462904751730
  0.2914670247505113  0.2504806665242469  0.5566728720969268
  0.7914670247505112  0.7504806665242469  0.9433271279030732
  0.7914670247505112  0.2504806665242470  0.4433271279030729
  0.4919125949888608  0.8779717398602248  0.8253578295236058
  0.4919125949888608  0.3779717398602252  0.3253578295236059
  0.9919125949888609  0.8779717398602249  0.1746421704763936
  0.2914670247505113  0.7504806665242468  0.0566728720969266
  0.8954588457899716  0.7899410992767111  0.2555925168614762
  0.8954588457899717  0.2899410992767115  0.7555925168614762
  0.8626667073580127  0.0859096041749321  0.2678609576708273
  0.8626667073580125  0.5859096041749319  0.7678609576708271
  0.3626667073580127  0.0859096041749321  0.7321390423291726
  0.0541093173009430  0.2269661549729911  0.8216803491317484
  0.0541093173009430  0.7269661549729907  0.3216803491317482
  0.5541093173009431  0.2269661549729911  0.1783196508682516
  0.5541093173009431  0.7269661549729908  0.6783196508682514
  0.3954588457899716  0.2899410992767112  0.2444074831385236
  0.3626667073580126  0.5859096041749319  0.2321390423291725
  0.3954588457899716  0.7899410992767109  0.7444074831385235
