 O Sc Gd 
 1.0000000000000000
   -14.3461241682238967    0.0000000000000000    0.0000000000000000
     0.0000000000000000  -15.2165384784059423    0.0000000000000000
     0.0000000000000000    0.0000000000000000   24.9521568060720362
 O   Sc  Gd 
  36  12  12
Direct
  0.3693960386974701  0.2049317911313211  0.9760734885708182
  0.5479293191320536  0.0278328806421094  0.4749900814844203
  0.9618213446455275  0.8646961882381662  0.2147282326731164
  0.0381786553544725  0.8646961882381662  0.7852717673268839
  0.0381786553544725  0.3646961882381663  0.2147282326731163
  0.9421369060335093  0.0681783501693777  0.3431806390575884
  0.9421369060335093  0.5681783501693775  0.6568193609424117
 -0.0000000000000000  0.4993438520462660  0.5000000000000001
 -0.0000000000000000  0.9993438520462659  0.5000000000000001
 -0.0000000000000000  0.4253059480574968  0.5000000000000001
 -0.0000000000000000  0.7607348857081817  0.0000000000000001
 -0.0000000000000000  0.2607348857081821  0.0000000000000000
 -0.0000000000000000  0.8001647999511701  0.5000000000000001
 -0.0000000000000000  0.3001647999511701  0.5000000000000001
  0.9618213446455275  0.3646961882381663  0.7852717673268838
 -0.0000000000000000  0.9253059480574968  0.5000000000000001
  0.1562852870265816  0.4672231208227790  0.2547990356151006
  0.8437147129734184  0.4672231208227790  0.7452009643848995
  0.0578630939664907  0.0681783501693777  0.6568193609424114
  0.1562852870265816  0.9672231208227789  0.7452009643848996
  0.8437147129734184  0.9672231208227789  0.2547990356151006
  0.4520706808679464  0.0278328806421094  0.5250099185155797
  0.4520706808679464  0.5278328806421093  0.4749900814844203
  0.5479293191320536  0.5278328806421093  0.5250099185155798
  0.6306039613025299  0.2049317911313211  0.0239265114291818
  0.0578630939664907  0.5681783501693775  0.3431806390575884
  0.6306039613025299  0.7049317911313210  0.9760734885708183
  0.3693960386974701  0.7049317911313210  0.0239265114291819
  0.8047730948820460  0.6761680959501937  0.1619312112796412
  0.8047730948820460  0.1761680959501936  0.8380687887203589
  0.1952269051179540  0.1761680959501936  0.1619312112796411
  0.0335703604235969  0.7202978606524856  0.6317331461531420
  0.9664296395764030  0.7202978606524856  0.3682668538468581
  0.9664296395764030  0.2202978606524857  0.6317331461531419
  0.0335703604235969  0.2202978606524857  0.3682668538468581
  0.1952269051179540  0.6761680959501937  0.8380687887203592
  0.9804986724448378  0.5394604327524642  0.2193060090945159
  0.0195013275551622  0.0394604327524644  0.2193060090945158
  0.0195013275551622  0.5394604327524642  0.7806939909054843
 -0.0000000000000000  0.0913113803521836  0.4999999999999999
  0.9804986724448378  0.0394604327524644  0.7806939909054842
  0.3058259834589679  0.3527176732688375  0.0224616229743340
  0.3058259834589679  0.8527176732688374  0.9775383770256661
  0.6941740165410322  0.8527176732688374  0.0224616229743341
  0.4999999999999999  0.2709280678731649  0.5000000000000001
  0.4999999999999999  0.7709280678731648  0.5000000000000001
 -0.0000000000000000  0.5913113803521834  0.5000000000000001
  0.6941740165410322  0.3527176732688375  0.9775383770256660
  0.4999999999999999  0.9715872676778465  0.0000000000000001
  0.4999999999999999  0.4715872676778464  0.0000000000000001
  0.6823633533738213  0.7160557878353218  0.9073763237403486
  0.3176366466261787  0.7160557878353218  0.0926236762596516
  0.3176366466261787  0.2160557878353221  0.9073763237403484
  0.1680043946653645  0.7203588976714376  0.6966765343180641
  0.8319956053346355  0.7203588976714376  0.3033234656819362
  0.8319956053346355  0.2203588976714376  0.6966765343180639
  0.1680043946653645  0.2203588976714376  0.3033234656819362
  0.4999999999999999  0.6496627704702901  0.5000000000000001
  0.6823633533738213  0.2160557878353221  0.0926236762596515
  0.4999999999999999  0.1496627704702901  0.4999999999999999
