 O Sc Gd 
 1.0000000000000000
   -37.9758165928706930    0.0000000000000000    0.0000000000000000
     0.0000000000000000    6.5192490325711834    0.0000000000000000
     0.0000000000000000    0.0000000000000000  -11.0083937031951127
 O   Sc  Gd 
  36  12  12
Direct
  0.2912076174199652  0.6389355143894772  0.1470686971648305
  0.0365306558427686  0.9864803003021333  0.1067842646565142
  0.2062135685293130  0.8049867244483779  0.6004058961760308
  0.2062135685293130  0.1950132755516221  0.3995941038239692
  0.2062135685293130  0.1950132755516221  0.1004058961760308
  0.1495712149418622  0.7031769768364511  0.7812128055665761
  0.1495712149418622  0.7031769768364511  0.7187871944334239
  0.8691366313669240  0.4999999999999999 -0.0000000000000000
  0.8691366313669240  0.4999999999999999  0.4999999999999999
  0.9382915738395335  0.4999999999999999 -0.0000000000000000
  0.7397076326792199  0.0122074037903989  0.2500000000000000
  0.7397076326792199  0.9877925962096011  0.7500000000000001
  0.6722312082277901  0.4999999999999999 -0.0000000000000000
  0.6722312082277901  0.4999999999999999  0.4999999999999999
  0.2062135685293130  0.8049867244483779  0.8995941038239693
  0.9382915738395335  0.4999999999999999  0.4999999999999999
  0.9690542313913388  0.8164006469924009  0.0481429486983856
  0.9690542313913388  0.1835993530075991  0.9518570513016146
  0.1495712149418622  0.2968230231635487  0.2187871944334239
  0.9690542313913388  0.8164006469924009  0.4518570513016145
  0.9690542313913388  0.1835993530075991  0.5481429486983855
  0.0365306558427686  0.0135196996978667  0.8932157353434861
  0.0365306558427686  0.0135196996978667  0.6067842646565141
  0.0365306558427686  0.9864803003021333  0.3932157353434858
  0.2912076174199652  0.3610644856105228  0.8529313028351695
  0.1495712149418622  0.2968230231635487  0.2812128055665761
  0.2912076174199652  0.3610644856105228  0.6470686971648305
  0.2912076174199652  0.6389355143894772  0.3529313028351695
  0.7696768089846492  0.7873165074617754  0.2091128269295328
  0.7696768089846492  0.7873165074617754  0.2908871730704672
  0.7696768089846492  0.2126834925382244  0.7091128269295328
  0.7419660023804437  0.5007171849726859  0.3003021332438124
  0.7419660023804437  0.4992828150273140  0.6996978667561876
  0.7419660023804437  0.4992828150273140  0.8003021332438125
  0.7419660023804437  0.5007171849726859  0.1996978667561876
  0.7696768089846492  0.2126834925382244  0.7908871730704674
  0.6214789269692068  0.3549607837153233  0.3452711569566942
  0.6214789269692068  0.6450392162846766  0.8452711569566942
  0.6214789269692068  0.6450392162846766  0.6547288430433058
  0.6877040925321207  0.0000000000000000 -0.0000000000000000
  0.6214789269692068  0.3549607837153233  0.1547288430433058
  0.8323007904293954  0.7583239234595782  0.5974761192663350
  0.8323007904293954  0.7583239234595782  0.9025238807336652
  0.8323007904293954  0.2416760765404218  0.0974761192663350
  0.7214575640125737  0.4999999999999999  0.4999999999999999
  0.7214575640125737  0.4999999999999999 -0.0000000000000000
  0.6877040925321207  0.0000000000000000  0.4999999999999999
  0.8323007904293954  0.2416760765404218  0.4025238807336651
  0.6920987578966643  0.6982329783013397  0.2500000000000000
  0.6920987578966643  0.3017670216986602  0.7500000000000001
  0.3082979827265236  0.8880581072420423  0.6150395214697714
  0.3082979827265236  0.1119418927579577  0.3849604785302286
  0.3082979827265236  0.1119418927579577  0.1150395214697713
  0.1073946348460341  0.9122592852565081  0.1199682607501450
  0.1073946348460341  0.0877407147434919  0.8800317392498552
  0.1073946348460341  0.0877407147434919  0.6199682607501450
  0.1073946348460341  0.9122592852565081  0.3800317392498551
  0.6263618884853663  0.0000000000000000  0.4999999999999999
  0.3082979827265236  0.8880581072420423  0.8849604785302286
  0.6263618884853663  0.0000000000000000 -0.0000000000000000
