 O Sc Gd 
 1.0000000000000000
   -17.8928911408160864    0.0000000000000000    0.0000000000000000
     0.0000000000000000  -17.8928911408160864    0.0000000000000000
     0.0000000000000000    0.0000000000000000   17.8928911408160864
 O   Sc  Gd 
  36  12  12
Direct
  0.5153355510116886  0.7856990264595479  0.4511246070741904
  0.5488753929258097  0.4846644489883115  0.7856990264595479
 -0.0000000000000000  0.4999999999999999  0.6838129825739311
 -0.0000000000000000  0.4999999999999999  0.3161870174260688
  0.4999999999999999  0.6838129825739311  0.0000000000000000
  0.0488753929258094  0.2856990264595476  0.9846644489883115
  0.9511246070741904  0.7143009735404523  0.9846644489883115
  0.4999999999999999  0.8161870174260689  0.0000000000000000
  0.4999999999999999  0.1838129825739311  0.0000000000000000
  0.8161870174260689 -0.0000000000000000  0.4999999999999999
 -0.0000000000000000  0.4999999999999999  0.8161870174260689
 -0.0000000000000000  0.4999999999999999  0.1838129825739311
  0.3161870174260688 -0.0000000000000000  0.4999999999999999
  0.6838129825739311 -0.0000000000000000  0.4999999999999999
  0.4999999999999999  0.3161870174260688  0.0000000000000000
  0.1838129825739311 -0.0000000000000000  0.4999999999999999
  0.7143009735404523  0.9846644489883115  0.9511246070741904
  0.7143009735404523  0.0153355510116886  0.0488753929258094
  0.9511246070741904  0.2856990264595476  0.0153355510116886
  0.2856990264595476  0.9846644489883115  0.0488753929258094
  0.2856990264595476  0.0153355510116886  0.9511246070741904
  0.4511246070741904  0.5153355510116886  0.7856990264595479
  0.5488753929258097  0.5153355510116886  0.2143009735404523
  0.4511246070741904  0.4846644489883115  0.2143009735404523
  0.4846644489883115  0.7856990264595479  0.5488753929258097
  0.0488753929258094  0.7143009735404523  0.0153355510116886
  0.4846644489883115  0.2143009735404523  0.4511246070741904
  0.5153355510116886  0.2143009735404523  0.5488753929258097
  0.7856990264595479  0.4511246070741904  0.5153355510116886
  0.2143009735404523  0.5488753929258097  0.5153355510116886
  0.2143009735404523  0.4511246070741904  0.4846644489883115
  0.9846644489883115  0.0488753929258094  0.2856990264595476
  0.0153355510116886  0.9511246070741904  0.2856990264595476
  0.0153355510116886  0.0488753929258094  0.7143009735404523
  0.9846644489883115  0.9511246070741904  0.7143009735404523
  0.7856990264595479  0.5488753929258097  0.4846644489883115
  0.4999999999999999  0.4999999999999999  0.3610492263557847
  0.4999999999999999  0.3610492263557847  0.4999999999999999
  0.4999999999999999  0.4999999999999999  0.6389507736442153
 -0.0000000000000000  0.8610492263557850  0.0000000000000000
  0.4999999999999999  0.6389507736442153  0.4999999999999999
  0.6389507736442153  0.4999999999999999  0.4999999999999999
 -0.0000000000000000 -0.0000000000000000  0.8610492263557850
 -0.0000000000000000 -0.0000000000000000  0.1389507736442153
  0.1389507736442153 -0.0000000000000000  0.0000000000000000
  0.8610492263557850 -0.0000000000000000  0.0000000000000000
 -0.0000000000000000  0.1389507736442153  0.0000000000000000
  0.3610492263557847  0.4999999999999999  0.4999999999999999
  0.3886837366863002 -0.0000000000000000  0.0000000000000000
  0.6113162633136997 -0.0000000000000000  0.0000000000000000
 -0.0000000000000000 -0.0000000000000000  0.3886837366863002
 -0.0000000000000000 -0.0000000000000000  0.6113162633136997
  0.8886837366863005  0.4999999999999999  0.4999999999999999
  0.4999999999999999  0.8886837366863005  0.4999999999999999
  0.4999999999999999  0.1113162633136998  0.4999999999999999
  0.4999999999999999  0.4999999999999999  0.8886837366863005
  0.4999999999999999  0.4999999999999999  0.1113162633136998
 -0.0000000000000000  0.6113162633136997  0.0000000000000000
  0.1113162633136998  0.4999999999999999  0.4999999999999999
 -0.0000000000000000  0.3886837366863002  0.0000000000000000
