 O Sc Gd 
 1.0000000000000000
    18.9003785707118368    0.0000000000000000    0.0000000000000000
     0.0000000000000000  -18.3795007157997503    0.0000000000000000
     0.0000000000000000    0.0000000000000000  -18.9003785707118368
 O   Sc  Gd 
  36  12  12
Direct
  0.6779076509903255  0.0870998260444960  0.6362804040650655
  0.6779076509903255  0.9129001739555042  0.3637195959349345
  0.4999999999999999 -0.0000000000000000  0.0625629444257942
  0.4999999999999999 -0.0000000000000000  0.9374370555742056
  0.0625629444257942  0.4999999999999999  0.4999999999999999
  0.5414899136326181  0.6045411542100285  0.6470229194006165
  0.3529770805993835  0.1045411542100284  0.5414899136326181
  0.8465834528641621  0.2500000000000000  0.8465834528641621
  0.1534165471358379  0.2500000000000000  0.1534165471358379
  0.1534165471358379  0.7500000000000000  0.8465834528641621
  0.6554460280159917  0.4999999999999999 -0.0000000000000000
  0.3445539719840083  0.4999999999999999 -0.0000000000000000
  0.0000000000000000 -0.0000000000000000  0.6554460280159917
  0.0000000000000000 -0.0000000000000000  0.3445539719840083
  0.9374370555742056  0.4999999999999999  0.4999999999999999
  0.8465834528641621  0.7500000000000000  0.1534165471358379
  0.6470229194006165  0.8954588457899716  0.5414899136326181
  0.3529770805993835  0.8954588457899716  0.4585100863673818
  0.4585100863673818  0.6045411542100285  0.3529770805993835
  0.4585100863673818  0.3954588457899717  0.6470229194006165
  0.5414899136326181  0.3954588457899717  0.3529770805993835
  0.3220923490096743  0.9129001739555042  0.6362804040650655
  0.6362804040650655  0.4129001739555040  0.6779076509903255
  0.3637195959349345  0.4129001739555040  0.3220923490096743
  0.3220923490096743  0.0870998260444960  0.3637195959349345
  0.6470229194006165  0.1045411542100284  0.4585100863673818
  0.6362804040650655  0.5870998260444960  0.3220923490096743
  0.3637195959349345  0.5870998260444960  0.6779076509903255
  0.1878719443342387  0.8514969328897977  0.4337290566728721
  0.4337290566728721  0.3514969328897977  0.8121280556657613
  0.5662709433271279  0.3514969328897977  0.1878719443342387
  0.1878719443342387  0.1485030671102023  0.5662709433271279
  0.8121280556657613  0.1485030671102023  0.4337290566728721
  0.5662709433271279  0.6485030671102026  0.8121280556657613
  0.4337290566728721  0.6485030671102026  0.1878719443342387
  0.8121280556657613  0.8514969328897977  0.5662709433271279
  0.6561784722434156  0.8191625720999787  0.5175328836939603
  0.4824671163060396  0.3191625720999787  0.6561784722434156
  0.3438215277565843  0.8191625720999787  0.4824671163060396
  0.4999999999999999  0.2500000000000000  0.4999999999999999
  0.5175328836939603  0.3191625720999787  0.3438215277565843
  0.6561784722434156  0.1808374279000214  0.4824671163060396
  0.5175328836939603  0.6808374279000213  0.6561784722434156
  0.4824671163060396  0.6808374279000213  0.3438215277565843
  0.4999999999999999  0.4999999999999999  0.4999999999999999
  0.4999999999999999 -0.0000000000000000  0.4999999999999999
  0.4999999999999999  0.7500000000000000  0.4999999999999999
  0.3438215277565843  0.1808374279000214  0.5175328836939603
  0.0000000000000000 -0.0000000000000000  0.4999999999999999
  0.4999999999999999  0.4999999999999999 -0.0000000000000000
  0.5644398327585680  0.9109164708395643  0.1807306131168554
  0.4355601672414320  0.9109164708395643  0.8192693868831447
  0.8192693868831447  0.4109164708395641  0.5644398327585680
  0.4355601672414320  0.0890835291604358  0.1807306131168554
  0.5644398327585680  0.0890835291604358  0.8192693868831447
  0.1807306131168554  0.5890835291604359  0.5644398327585680
  0.8192693868831447  0.5890835291604359  0.4355601672414320
  0.0000000000000000  0.4999999999999999 -0.0000000000000000
  0.1807306131168554  0.4109164708395641  0.4355601672414320
  0.0000000000000000 -0.0000000000000000 -0.0000000000000000
