 O Sc Gd 
 1.0000000000000000
   -17.5947571054387737    0.0000000000000000    0.0000000000000000
     0.0000000000000000  -17.8072204409950174    0.0000000000000000
     0.0000000000000000    8.9036102204975052   15.4215052726912223
 O   Sc  Gd 
  36  12  12
Direct
  0.8841822565385905  0.8912625507370220  0.0361644337290566
  0.1158177434614093  0.1449018829920346  0.0361644337290567
  0.5509506515701772  0.6423841059602646  0.2901699880977813
  0.2176176515701773  0.6477858821375162  0.3576158940397350
  0.8842836515701773  0.7098300119022187  0.3522141178624836
  0.0693173745231483  0.1489303262428663  0.8095950193792535
  0.2640156254768518  0.1904049806207465  0.8510696737571336
  0.1666670000000000  0.5718863490707112  0.4281136509292885
  0.8333340000000000  0.8562273018585771  0.4281136509292886
  0.4999999999999999  0.5718863490707112  0.1437726981414227
  0.3333340000000000  0.3668630024109623  0.6834315012054812
 -0.0000000000000000  0.3165684987945188  0.6331369975890377
  0.4490493484298227  0.6477858821375162  0.2901699880977813
  0.1157163484298227  0.6423841059602647  0.3522141178624836
  0.7823823484298227  0.7098300119022186  0.3576158940397350
  0.6666670000000000  0.3165684987945189  0.6834315012054812
  0.4026513745231481  0.1904049806207465  0.3393353068636128
  0.7359843745231481  0.6606646931363872  0.8510696737571336
  0.5973486254768517  0.1489303262428663  0.3393353068636128
  0.5727310278328807  0.6318857387005218  0.0740684224982451
  0.9060640278328806  0.9259315775017545  0.5578173162022766
  0.7824847434614093  0.8912625507370218  0.8550981170079653
  0.4491507434614093  0.9638355662709431  0.1087374492629779
  0.2175152565385907  0.9638355662709431  0.8550981170079653
  0.5508492565385906  0.1449018829920346  0.1087374492629780
  0.9306826254768517  0.6606646931363872  0.8095950193792534
  0.6799120331125826  0.1179235206152532  0.7944883571886351
  0.0132450331125828  0.2055116428113650  0.3234351634266183
  0.3200879668874172  0.6765648365733817  0.7944883571886351
  0.6534219668874173  0.2055116428113650  0.8820764793847469
  0.9867549668874172  0.1179235206152532  0.3234351634266183
  0.0939359721671194  0.6318857387005218  0.5578173162022767
  0.7606029721671194  0.9259315775017547  0.3681142612994781
  0.4272689721671193  0.4421826837977232  0.0740684224982451
  0.2393970278328806  0.4421826837977232  0.3681142612994781
  0.3465780331125828  0.6765648365733817  0.8820764793847469
  0.7116818014770958  0.8833277382732624  0.0166020691549424
  0.2883181985229042  0.1332743308816797  0.0166020691549424
  0.0450148014770959  0.9833979308450576  0.8667256691183203
  0.6666670000000000  0.7535630359813225  0.2464369640186772
  0.3783478014770959  0.1332743308816797  0.1166722617267373
  0.6216521985229040  0.9833979308450573  0.1166722617267372
  0.3333340000000000  0.9593493453779717  0.9796746726889859
 -0.0000000000000000  0.0203253273110141  0.0406506546220282
  0.6666670000000000  0.0203253273110142  0.9796746726889859
 -0.0000000000000000  0.7535630359813225  0.5071260719626454
  0.3333340000000000  0.4928739280373545  0.2464369640186773
  0.9549851985229041  0.8833277382732624  0.8667256691183202
  0.0874148506424146  0.7142551957762381  0.7709891048921170
  0.5792511493575854  0.7142551957762382  0.9432660908841212
  0.9125851493575854  0.0567339091158788  0.7709891048921171
  0.2459181493575854  0.2290108951078829  0.2857448042237617
  0.2962736899929808  0.9063386944181643  0.1205481124301889
  0.6296066899929808  0.8794518875698110  0.7857905819879758
  0.0370593100070192  0.8794518875698110  0.0936613055818353
  0.3703933100070192  0.9063386944181645  0.7857905819879757
  0.7037263100070192  0.2142094180120243  0.1205481124301889
  0.4207488506424146  0.2290108951078829  0.9432660908841212
  0.9629406899929807  0.2142094180120243  0.0936613055818354
  0.7540818506424146  0.0567339091158787  0.2857448042237617
