 O Sc Gd 
 1.0000000000000000
    17.7832326450451177    0.0000000000000000    0.0000000000000000
     0.0000000000000000  -17.7832326450451177    0.0000000000000000
     0.0000000000000000    0.0000000000000000  -17.7832326450451177
 O   Sc  Gd 
  36  12  12
Direct
  0.3421277504806666  0.2312692648091067  0.2767571031830806
  0.2232428968169195  0.8421277504806666  0.7687307351908934
  0.1878872035889767  0.3121127964110233  0.8121127964110233
  0.3121127964110233  0.8121127964110233  0.1878872035889767
  0.8121127964110233  0.1878872035889767  0.3121127964110233
  0.9095126194036683  0.4179204687643056  0.3299661244544816
  0.5904873805963317  0.9179204687643057  0.6700338755455184
  0.5272377697073275  0.5272377697073275  0.5272377697073275
  0.9727622302926726  0.0272377697073276  0.4727622302926725
  0.4727622302926725  0.9727622302926726  0.0272377697073276
  0.2464064455092013  0.2464064455092013  0.2464064455092013
  0.2535935544907987  0.7464064455092013  0.7535935544907987
  0.7535935544907987  0.2535935544907987  0.7464064455092013
  0.7464064455092013  0.7535935544907987  0.2535935544907987
  0.6878872035889767  0.6878872035889767  0.6878872035889767
  0.0272377697073276  0.4727622302926725  0.9727622302926726
  0.6700338755455184  0.5904873805963317  0.9179204687643057
  0.1700338755455184  0.4095126194036682  0.5820795312356944
  0.0904873805963317  0.0820795312356944  0.8299661244544816
  0.3299661244544816  0.9095126194036683  0.4179204687643056
  0.8299661244544816  0.0904873805963317  0.0820795312356944
  0.2767571031830806  0.3421277504806666  0.2312692648091067
  0.7767571031830806  0.6578722495193335  0.2687307351908932
  0.7232428968169194  0.1578722495193334  0.7312692648091067
  0.8421277504806666  0.7687307351908934  0.2232428968169195
  0.4095126194036682  0.5820795312356944  0.1700338755455184
  0.1578722495193334  0.7312692648091067  0.7232428968169194
  0.6578722495193335  0.2687307351908932  0.7767571031830806
  0.2312692648091067  0.2767571031830806  0.3421277504806666
  0.2687307351908932  0.7767571031830806  0.6578722495193335
  0.7312692648091067  0.7232428968169194  0.1578722495193334
  0.4179204687643056  0.3299661244544816  0.9095126194036683
  0.0820795312356944  0.8299661244544816  0.0904873805963317
  0.5820795312356944  0.1700338755455184  0.4095126194036682
  0.9179204687643057  0.6700338755455184  0.5904873805963317
  0.7687307351908934  0.2232428968169195  0.8421277504806666
  0.1960661641285439  0.9552598651081882  0.4068575090792566
  0.6960661641285439  0.0447401348918119  0.0931424909207434
  0.8039338358714561  0.5447401348918118  0.9068575090792566
  0.0447401348918119  0.0931424909207434  0.6960661641285439
  0.3039338358714561  0.4552598651081882  0.5931424909207434
  0.9068575090792566  0.8039338358714561  0.5447401348918118
  0.0931424909207434  0.6960661641285439  0.0447401348918119
  0.5931424909207434  0.3039338358714561  0.4552598651081882
  0.5447401348918118  0.9068575090792566  0.8039338358714561
  0.9552598651081882  0.4068575090792566  0.1960661641285439
  0.4552598651081882  0.5931424909207434  0.3039338358714561
  0.4068575090792566  0.1960661641285439  0.9552598651081882
  0.0661030915250099  0.5661030915250099  0.4338969084749902
  0.4338969084749902  0.0661030915250099  0.5661030915250099
  0.0222174748985260  0.0222174748985260  0.0222174748985260
  0.4777825251014741  0.5222174748985260  0.9777825251014741
  0.9777825251014741  0.4777825251014741  0.5222174748985260
  0.3615833002716147  0.3615833002716147  0.3615833002716147
  0.1384166997283853  0.8615833002716147  0.6384166997283853
  0.6384166997283853  0.1384166997283853  0.8615833002716147
  0.8615833002716147  0.6384166997283853  0.1384166997283853
  0.5661030915250099  0.4338969084749902  0.0661030915250099
  0.5222174748985260  0.9777825251014741  0.4777825251014741
  0.9338969084749901  0.9338969084749901  0.9338969084749901
