 O Sc Gd 
 1.0000000000000000
   -56.6057669759600017    0.0000000000000000    0.0000000000000000
     0.0000000000000000  -11.1506070648980860    0.0000000000000000
     0.0000000000000000    0.0000000000000000   11.1506070648980860
 O   Sc  Gd 
  36  12  12
Direct
  0.7316812646870327  0.8801385540330210  0.1675771355327006
  0.2683187353129673  0.3801385540330210  0.8324228644672994
  0.2683187353129673  0.8324228644672994  0.3801385540330210
  0.2683187353129673  0.6675771355327006  0.1198614459669791
  0.2683187353129673  0.1198614459669791  0.8324228644672994
  0.8749961851863155  0.9588915677358317  0.0446943571275979
  0.8749961851863155  0.4553056428724021  0.9588915677358317
  0.6950285348063601  0.7500000000000001  0.2500000000000000
  0.6950285348063601  0.2500000000000000  0.7500000000000001
  0.3049714651936399  0.2500000000000000  0.7500000000000001
  0.7316812646870327  0.6198614459669790  0.1675771355327006
  0.7316812646870327  0.8801385540330210  0.3324228644672994
  0.7316812646870327  0.3324228644672994  0.6198614459669790
  0.7316812646870327  0.1675771355327006  0.8801385540330210
  0.2683187353129673  0.3801385540330210  0.6675771355327006
  0.3049714651936399  0.7500000000000001  0.2500000000000000
  0.1250038148136845  0.5446943571275980  0.4588915677358316
  0.1250038148136845  0.9553056428724020  0.0411084322641683
  0.8749961851863155  0.5411084322641683  0.4553056428724021
  0.1250038148136845  0.0411084322641683  0.5446943571275980
  0.1250038148136845  0.4588915677358316  0.9553056428724020
  0.2683187353129673  0.1198614459669791  0.6675771355327006
  0.2683187353129673  0.6675771355327006  0.3801385540330210
  0.2683187353129673  0.8324228644672994  0.1198614459669791
  0.7316812646870327  0.6198614459669790  0.3324228644672994
  0.8749961851863155  0.0446943571275979  0.5411084322641683
  0.7316812646870327  0.1675771355327006  0.6198614459669790
  0.7316812646870327  0.3324228644672994  0.8801385540330210
  0.8749961851863155  0.5411084322641683  0.0446943571275979
  0.8749961851863155  0.0446943571275979  0.9588915677358317
  0.8749961851863155  0.4553056428724021  0.5411084322641683
  0.1250038148136845  0.0411084322641683  0.9553056428724020
  0.1250038148136845  0.4588915677358316  0.5446943571275980
  0.1250038148136845  0.9553056428724020  0.4588915677358316
  0.1250038148136845  0.5446943571275980  0.0411084322641683
  0.8749961851863155  0.9588915677358317  0.4553056428724021
  0.0455641346476638  0.2500000000000000  0.7500000000000001
  0.9544358653523362  0.7500000000000001  0.2500000000000000
  0.0455641346476638  0.7500000000000001  0.2500000000000000
 -0.0000000000000000  0.7500000000000001  0.2500000000000000
  0.9544358653523362  0.2500000000000000  0.7500000000000001
 -0.0000000000000000 -0.0000000000000000  0.4999999999999999
 -0.0000000000000000 -0.0000000000000000  0.0000000000000000
 -0.0000000000000000  0.4999999999999999  0.4999999999999999
  0.9402447584459975  0.7500000000000001  0.7500000000000001
  0.0597552415540025  0.2500000000000000  0.2500000000000000
 -0.0000000000000000  0.2500000000000000  0.7500000000000001
 -0.0000000000000000  0.4999999999999999  0.0000000000000000
  0.4999999999999999  0.4999999999999999  0.0000000000000000
  0.4999999999999999 -0.0000000000000000  0.4999999999999999
  0.5818048646504105  0.7500000000000001  0.2500000000000000
  0.5818048646504105  0.2500000000000000  0.7500000000000001
  0.4181951353495895  0.2500000000000000  0.7500000000000001
  0.1207922605059969  0.7500000000000001  0.2500000000000000
  0.1207922605059969  0.2500000000000000  0.7500000000000001
  0.8792077394940033  0.2500000000000000  0.7500000000000001
  0.8792077394940033  0.7500000000000001  0.2500000000000000
  0.4999999999999999  0.4999999999999999  0.4999999999999999
  0.4181951353495895  0.7500000000000001  0.2500000000000000
  0.4999999999999999 -0.0000000000000000  0.0000000000000000
