 O Sc Gd 
 1.0000000000000000
   -42.2816259658775451    0.0000000000000000    0.0000000000000000
     0.0000000000000000  -10.5714731341076700    0.0000000000000000
     0.0000000000000000    5.2857365670538314    9.1551642895619416
 O   Sc  Gd 
  36  12  12
Direct
  0.7500000000000002  0.8454542680135498  0.9783928952909938
  0.2500000000000000  0.8670613727225558  0.8454542680135501
  0.5838343455305642 -0.0000000000000000  0.0000000000000000
  0.0838343455305642 -0.0000000000000000  0.0000000000000000
  0.4161656544694359 -0.0000000000000000  0.0000000000000000
  0.5931882686849574  0.8253730887783436  0.6641132847071748
  0.0931882686849574  0.1746269112216559  0.3358867152928252
  0.0384838404492325 -0.0000000000000000  0.0000000000000000
  0.5384838404492325 -0.0000000000000000  0.0000000000000000
  0.9615161595507675 -0.0000000000000000  0.0000000000000000
  0.0569780571916868  0.6666669999999997  0.3333329999999999
  0.5569780571916868  0.3333329999999998  0.6666670000000001
  0.9430219428083133  0.3333329999999998  0.6666670000000001
  0.4430219428083133  0.6666669999999997  0.3333329999999999
  0.9161656544694358 -0.0000000000000000  0.0000000000000000
  0.4615161595507676 -0.0000000000000000  0.0000000000000000
  0.5931882686849574  0.3358867152928249  0.1612598040711691
  0.5931882686849574  0.8387401959288304  0.1746269112216559
  0.0931882686849574  0.1612598040711691  0.8253730887783440
  0.9068117313150426  0.3358867152928249  0.1612598040711691
  0.9068117313150426  0.8253730887783436  0.6641132847071748
  0.2500000000000000  0.9783928952909934  0.1329386272774437
  0.2500000000000000  0.1545457319864498  0.0216071047090061
  0.7500000000000002  0.1329386272774437  0.1545457319864498
  0.7500000000000002  0.0216071047090061  0.8670613727225565
  0.0931882686849574  0.6641132847071747  0.8387401959288311
  0.2500000000000000  0.1388897366252631  0.6675313577684866
  0.2500000000000000  0.3324686422315133  0.4713583788567766
  0.7500000000000002  0.6675313577684862  0.5286416211432234
  0.7500000000000002  0.8611102633747362  0.3324686422315133
  0.7500000000000002  0.4713583788567763  0.1388897366252632
  0.4068117313150426  0.1612598040711691  0.8253730887783440
  0.4068117313150426  0.6641132847071747  0.8387401959288311
  0.4068117313150426  0.1746269112216559  0.3358867152928252
  0.9068117313150426  0.8387401959288304  0.1746269112216559
  0.2500000000000000  0.5286416211432232  0.8611102633747368
  0.7500000000000002  0.3264870143742177  0.8371227149266032
  0.2500000000000000  0.4893642994476146  0.3264870143742179
  0.7500000000000002  0.5106357005523848  0.6735129856257822
 -0.0000000000000000 -0.0000000000000000  0.4999999999999999
  0.7500000000000002  0.1628772850733970  0.4893642994476151
  0.2500000000000000  0.6735129856257819  0.1628772850733970
  0.4999999999999999  0.4999999999999996 -0.0000000000000001
  0.4999999999999999  0.4999999999999996  0.4999999999999999
  0.4999999999999999 -0.0000000000000000  0.4999999999999999
 -0.0000000000000000  0.4999999999999996  0.4999999999999999
 -0.0000000000000000  0.4999999999999996 -0.0000000000000001
  0.2500000000000000  0.8371227149266025  0.5106357005523852
  0.0560930204168828  0.8833887752922144  0.6165959654530473
  0.5560930204168828  0.2667928098391673  0.8833887752922147
  0.5560930204168828  0.6165959654530470  0.7332071901608325
  0.5560930204168828  0.1166112247077852  0.3834040345469528
  0.9439069795831172  0.2667928098391673  0.8833887752922147
  0.9439069795831172  0.1166112247077852  0.3834040345469528
  0.4439069795831173  0.7332071901608322  0.1166112247077852
  0.4439069795831173  0.3834040345469525  0.2667928098391674
  0.4439069795831173  0.8833887752922144  0.6165959654530473
  0.0560930204168828  0.3834040345469525  0.2667928098391674
  0.9439069795831172  0.6165959654530470  0.7332071901608325
  0.0560930204168828  0.7332071901608322  0.1166112247077852
