 O Sc Gd 
 1.0000000000000000
    -9.3994979605554683    0.0000000000000000    0.0000000000000000
     0.0000000000000000  -25.2520042554457760    0.0000000000000000
     0.0000000000000000    0.0000000000000000   25.2520042554457760
 O   Sc  Gd 
  36  12  12
Direct
  0.8144627216406751  0.7408215582750939  0.7900479140598773
  0.6855372783593249  0.2408215582750939  0.7099520859401227
  0.4873958555864131  0.6138035218359935  0.7016663106173895
  0.4873958555864131  0.3861964781640065  0.2983336893826105
  0.5126041444135868  0.7016663106173895  0.3861964781640065
  0.5978423413800470  0.6689199499496444  0.5519730216376232
  0.4021576586199531  0.5519730216376232  0.3310800500503554
  0.2472914822840052 -0.0000000000000000  0.0000000000000000
  0.7527085177159948 -0.0000000000000000  0.0000000000000000
  0.2527085177159948  0.4999999999999999  0.4999999999999999
  0.9873958555864132  0.2016663106173895  0.1138035218359935
  0.9873958555864132  0.7983336893826105  0.8861964781640065
  0.0126041444135868  0.1138035218359935  0.7983336893826105
  0.0126041444135868  0.8861964781640065  0.2016663106173895
  0.5126041444135868  0.2983336893826105  0.6138035218359935
  0.7472914822840052  0.4999999999999999  0.4999999999999999
  0.0978423413800470  0.9480269783623767  0.8310800500503555
  0.0978423413800470  0.0519730216376232  0.1689199499496444
  0.5978423413800470  0.3310800500503554  0.4480269783623768
  0.9021576586199530  0.8310800500503555  0.0519730216376232
  0.9021576586199530  0.1689199499496444  0.9480269783623767
  0.6855372783593249  0.7591784417249060  0.2900479140598773
  0.3144627216406751  0.7099520859401227  0.7591784417249060
  0.3144627216406751  0.2900479140598773  0.2408215582750939
  0.8144627216406751  0.2591784417249061  0.2099520859401227
  0.4021576586199531  0.4480269783623768  0.6689199499496444
  0.1855372783593250  0.2099520859401227  0.7408215582750939
  0.1855372783593250  0.7900479140598773  0.2591784417249061
  0.7577745902890103  0.8695944090090638  0.1461531418805505
  0.2422254097109897  0.8538468581194495  0.8695944090090638
  0.2422254097109897  0.1461531418805505  0.1304055909909360
  0.7422254097109897  0.3695944090090640  0.3538468581194496
  0.7422254097109897  0.6304055909909361  0.6461531418805505
  0.2577745902890103  0.6461531418805505  0.3695944090090640
  0.2577745902890103  0.3538468581194496  0.6304055909909361
  0.7577745902890103  0.1304055909909360  0.8538468581194495
  0.1733603930784020  0.6337931455427717  0.2256080813013093
  0.8266396069215980  0.2256080813013093  0.3662068544572283
  0.1733603930784020  0.3662068544572283  0.7743919186986907
  0.4999999999999999 -0.0000000000000000  0.0000000000000000
  0.8266396069215980  0.7743919186986907  0.6337931455427717
  0.3266396069215980  0.1337931455427717  0.2743919186986907
  0.6733603930784020  0.2743919186986907  0.8662068544572281
  0.6733603930784020  0.7256080813013093  0.1337931455427717
  0.4999999999999999  0.4999999999999999  0.4999999999999999
 -0.0000000000000000 -0.0000000000000000  0.0000000000000000
 -0.0000000000000000  0.4999999999999999  0.4999999999999999
  0.3266396069215980  0.8662068544572281  0.7256080813013093
  0.6210058900723289  0.4999999999999999  0.0000000000000000
  0.3789941099276710 -0.0000000000000000  0.4999999999999999
  0.7236854152043214  0.7600939970091859  0.7534409619434187
  0.7236854152043214  0.2399060029908139  0.2465590380565813
  0.2763145847956786  0.7534409619434187  0.2399060029908139
  0.7763145847956786  0.7399060029908139  0.2534409619434186
  0.7763145847956786  0.2600939970091862  0.7465590380565813
  0.2236854152043213  0.7465590380565813  0.7399060029908139
  0.2236854152043213  0.2534409619434186  0.2600939970091862
  0.1210058900723289  0.4999999999999999  0.0000000000000000
  0.2763145847956786  0.2465590380565813  0.7600939970091859
  0.8789941099276711 -0.0000000000000000  0.4999999999999999
