 O Sc Gd 
 1.0000000000000000
   -10.7668023296997042    0.0000000000000000    0.0000000000000000
     0.0000000000000000  -29.5989355643667267    0.0000000000000000
     0.0000000000000000    0.0000000000000000   10.5286377841971337
 O   Sc  Gd 
  36  12  12
Direct
  0.7500000000000001  0.8464613788262578  0.7500000000000007
 -0.0000000000000000  0.4034241767632067  0.0000000000000003
  0.2500000000000000  0.7186956389049957  0.7500000000000004
  0.7500000000000001  0.7186956389049957  0.2500000000000005
  0.7500000000000001  0.2186956389049958  0.7500000000000003
  0.1102938932462538  0.0164342173528245  0.8461256752220224
  0.3897061067537462  0.0164342173528245  0.6538743247779780
 -0.0000000000000000  0.0593890194402905  0.0000000000000000
  0.4999999999999999  0.0593890194402905  0.4999999999999999
 -0.0000000000000000  0.5593890194402904  0.0000000000000003
  0.4999999999999999  0.7211828974272896  0.0000000000000005
 -0.0000000000000000  0.7211828974272896  0.5000000000000004
  0.4999999999999999  0.2211828974272895  0.0000000000000001
 -0.0000000000000000  0.2211828974272895  0.5000000000000003
  0.2500000000000000  0.2186956389049958  0.2500000000000002
  0.4999999999999999  0.5593890194402904  0.5000000000000003
  0.6102938932462538  0.5164342173528244  0.6538743247779782
  0.1102938932462538  0.5164342173528244  0.1538743247779782
  0.6102938932462538  0.0164342173528245  0.3461256752220221
  0.8897061067537462  0.5164342173528244  0.8461256752220228
  0.3897061067537462  0.5164342173528244  0.3461256752220225
  0.4999999999999999  0.4034241767632067  0.5000000000000003
 -0.0000000000000000  0.9034241767632066  0.0000000000000006
  0.4999999999999999  0.9034241767632066  0.5000000000000007
  0.2500000000000000  0.8464613788262578  0.2500000000000006
  0.8897061067537462  0.0164342173528245  0.1538743247779778
  0.2500000000000000  0.3464613788262579  0.7500000000000004
  0.7500000000000001  0.3464613788262579  0.2500000000000002
  0.1351817377239297  0.0374767296365245  0.2922910245063633
  0.3648182622760704  0.0374767296365245  0.2077089754936369
  0.8648182622760704  0.0374767296365245  0.7077089754936371
  0.3648182622760704  0.5374767296365245  0.7922910245063635
  0.8648182622760704  0.5374767296365245  0.2922910245063636
  0.6351817377239296  0.5374767296365245  0.2077089754936372
  0.1351817377239297  0.5374767296365245  0.7077089754936374
  0.6351817377239296  0.0374767296365245  0.7922910245063631
  0.0558488723410749  0.2064119388409069  0.1500595110934783
  0.9441511276589252  0.2064119388409069  0.8499404889065221
  0.5558488723410748  0.2064119388409069  0.6500595110934785
  0.4999999999999999  0.0385448774681844  0.0000000000000000
  0.4441511276589251  0.2064119388409069  0.3499404889065221
  0.4441511276589251  0.7064119388409069  0.6500595110934786
  0.0558488723410749  0.7064119388409069  0.8499404889065224
  0.5558488723410748  0.7064119388409069  0.3499404889065223
 -0.0000000000000000  0.5385448774681844  0.5000000000000003
  0.4999999999999999  0.5385448774681844  0.0000000000000003
 -0.0000000000000000  0.0385448774681844  0.4999999999999999
  0.9441511276589252  0.7064119388409069  0.1500595110934786
  0.4999999999999999  0.1454664754173404  0.0000000000000001
 -0.0000000000000000  0.1454664754173404  0.5000000000000001
  0.8676717429120762  0.4655293435468610  0.7125766777550588
  0.3676717429120762  0.4655293435468610  0.2125766777550587
  0.1323282570879238  0.4655293435468610  0.2874233222449420
  0.1323282570879238  0.9655293435468610  0.7125766777550592
  0.6323282570879238  0.9655293435468610  0.2125766777550590
  0.8676717429120762  0.9655293435468610  0.2874233222449422
  0.3676717429120762  0.9655293435468610  0.7874233222449423
 -0.0000000000000000  0.6454664754173405  0.5000000000000004
  0.6323282570879238  0.4655293435468610  0.7874233222449419
  0.4999999999999999  0.6454664754173405  0.0000000000000004
