 O Sc Gd 
 1.0000000000000000
    18.6296591592772671    0.0000000000000000    0.0000000000000000
    -9.3148295796386300   16.1337580957795623    0.0000000000000000
     0.0000000000000000    0.0000000000000000   23.8521450203695338
 O   Sc  Gd 
  36  12  12
Direct
  0.9190038758507032  0.9593798638874479  0.5234022770165105
  0.6527603991821040  0.8862269966734826  0.4249397259437850
  0.3084505752739036  0.7050080874050111  0.9375994876247445
  0.2949919125949889  0.6034424878688924  0.2709334876247445
  0.3965575121311074  0.6915494247260964  0.6042664876247444
  0.1638843958861049  0.6880092776268806  0.0292770900906398
  0.6118961149937436  0.7006134220404675  0.7327897705313273
  0.8492690816980497  0.9553514206366163  0.5125583666493728
  0.1060823389385663  0.1507309183019502  0.1792253666493728
  0.0446485793633837  0.8939176610614334  0.8458913666493728
  0.6730246894741660  0.3706472975859861  0.9655958003173926
  0.6976226081118198  0.3269753105258341  0.6322618003173925
  0.8520767845698415  0.9392681661427658  0.9968565935239724
  0.0871913815729239  0.1479232154301584  0.6635235935239723
  0.0607318338572344  0.9128086184270758  0.3301895935239723
  0.6293527024140140  0.3023773918881803  0.2989288003173925
  0.3119907223731193  0.4758751182592242  0.3626110900906401
  0.5241248817407758  0.8361156041138950  0.6959440900906401
  0.0887173070467238  0.3881038850062562  0.3994567705313273
  0.0600299081392865  0.3585009308145390  0.0679548810998871
  0.2984710226752524  0.9399700918607135  0.7346208810998871
  0.2334665974913785  0.3472396008178961  0.0916067259437849
  0.1137730033265175  0.7665334025086215  0.7582727259437849
  0.0403759880367443  0.0809961241492966  0.1900692770165105
  0.0406201361125522  0.9596240119632558  0.8567362770165106
  0.2993865779595324  0.9112826929532761  0.0661237705313273
  0.7177037873470260  0.7932370983001191  0.4398534375743890
  0.2067629016998808  0.9244666890469069  0.7731864375743889
  0.0802636799218726  0.0592669454023866  0.2294076357310709
  0.9790032654805140  0.9197363200781276  0.8960746357310709
  0.9407330545976135  0.0209967345194862  0.5627406357310709
  0.8185369426557206  0.8536942655720695  0.0256965849787896
  0.0351573229163488  0.1814630573442792  0.6923635849787897
  0.1463057344279305  0.9648426770836512  0.3590295849787896
  0.6414990691854608  0.7015289773247475  0.4012878810998871
  0.0755333109530930  0.2822962126529740  0.1065194375743888
  0.2576677755058442  0.6894131290627765  0.6757615158238472
  0.7484969634083071  0.7030854213080234  0.4203412705160680
  0.4317453535569322  0.7423322244941557  0.3424275158238472
  0.7482528153324991  0.3288064210943939  0.4700460829493088
  0.3105868709372234  0.5682546464430677  0.0090945158238472
  0.2969145786919767  0.0454115421002839  0.7536752705160680
  0.8375804925687428  0.8801232947782831  0.0798570997955261
  0.0425428022095401  0.1624195074312571  0.7465230997955260
  0.1198767052217170  0.9574571977904598  0.4131900997955261
  0.6711935789056063  0.4194463942381056  0.8033790829493089
  0.5805536057618945  0.2517471846675009  0.1367130829493088
  0.9545884578997161  0.2515030365916931  0.0870082705160680
  0.1241492965483566  0.4801782280953399  0.8624323987853633
  0.8771019623401592  0.3931699575792720  0.1711172826319163
  0.5160679952391125  0.1228980376598408  0.8377842826319164
  0.6068300424207282  0.4839320047608877  0.5044502826319163
  0.6993926816614275  0.9753105258339183  0.1275368511001923
  0.0246894741660818  0.7240821558275095  0.4608698511001923
  0.7214270455030977  0.2786950285348065  0.0933256019775994
  0.5572679830317085  0.2785729544969025  0.7599926019775994
  0.7213049714651936  0.4427320169682914  0.4266586019775994
  0.5198217719046601  0.6439710684530168  0.1957663987853633
  0.2759178441724907  0.3006073183385724  0.7942038511001924
  0.3560289315469832  0.8758507034516434  0.5290993987853633
